0 95 326 605 750 1319 1726 3126 4464 6885 
0 93 163 469 593 1248 2191 3993 5514 7351 
0 85 234 513 639 1699 2367 4841 6699 11369 
0 89 208 362 657 1313 1406 2163 4545 4952 
0 166 381 576 687 1356 1948 4872 8097 15078 
85 206 302 482 683 782 1732 2007 2648 15085 
80 210 478 1135 1437 1800 2216 4319 8544 13500 
0 116 360 533 1536 1845 2302 4070 4887 8153 
0 60 274 645 712 1372 2456 4415 6783 7366 
91 163 445 1222 1617 1877 2341 2549 6852 9128 
